NAME          BLANK   
ROWS
 N  OBJROW
 L  r1
 L  r2
 L  r3
 L  r4
 L  r5
COLUMNS
    c1        OBJROW    1.             r1        3.          
    c1        r5        5.6         
    c2        OBJROW    1.             r1        1.          
    c2        r2        2.          
    c3        OBJROW    1.             r2        1.1         
    c3        r3        1.          
    c4        OBJROW    1.             r1         -2.        
    c4        r4        2.8         
    c5        OBJROW    1.             r1         -1.        
    c5        r5        1.          
    c6        OBJROW    1.             r3        1.          
    c7        OBJROW    1.             r4         -1.2       
    c8        OBJROW    1.             r1         -1.        
    c8        r5        1.9         
RHS
    RHS       r1        14.            r2        80.         
    RHS       r3        50.            r4        50.         
    RHS       r5        50.         
BOUNDS
 UP BOUND     c1        1000000.    
 UP BOUND     c2        1000000.    
 UP BOUND     c3        1000000.    
 UP BOUND     c4        1000000.    
 UP BOUND     c5        1000000.    
 UP BOUND     c6        1000000.    
 UP BOUND     c7        1000000.    
 UP BOUND     c8        1000000.    
ENDATA
